(set-logic UF)
(declare-sort Set 0)
(declare-sort Elem 0)
(declare-fun member (Elem Set) Bool)
(declare-fun subset (Set Set) Bool)
(declare-fun seteq (Set Set) Bool)
(declare-fun union (Set Set) Set)
(declare-fun intersection (Set Set) Set)
(declare-fun difference (Set Set) Set)
(declare-fun a () Set)
(declare-fun b () Set)
(declare-fun c () Set)
(assert (not (or (not (not (forall ((?x Elem)) (or (not (member ?x (intersection (intersection a b) c))) (member ?x (intersection a (intersection b c))))))) (not (or (not (member (choice ((?x Elem)) (not (or (not (member ?x (intersection (intersection a b) c))) (member ?x (intersection a (intersection b c)))))) (intersection (intersection a b) c))) (member (choice ((?x Elem)) (not (or (not (member ?x (intersection (intersection a b) c))) (member ?x (intersection a (intersection b c)))))) (intersection a (intersection b c))))))))
(assert (not (not (not (or (not (member (choice ((?x Elem)) (not (or (not (member ?x (intersection (intersection a b) c))) (member ?x (intersection a (intersection b c)))))) (intersection (intersection a b) c))) (member (choice ((?x Elem)) (not (or (not (member ?x (intersection (intersection a b) c))) (member ?x (intersection a (intersection b c)))))) (intersection a (intersection b c))))))))
(check-sat)
(exit)
